peakDumbCharging = 25900; 
Machine = anon_enum(16); 
machineSpeed = [3700,3700,3700,3700,3700,3700,3700,3700,3700,3700,3700,3700,3700,3700,3700,3700]; 
machineLoad = [3700,3700,3700,3700,3700,3700,3700,3700,3700,3700,3700,3700,3700,3700,3700,3700]; 
Car = anon_enum(28); 
demandCar = [2920,7000,21720,4400,7440,17200,24160,15400,5320,8640,3800,2040,1600,3560,21440,5600,16560,14600,7640,10240,2880,15400,3400,29000,31760,11880,32521,32640]; 
arrivalCar = [76,73,71,68,67,67,66,65,65,65,64,62,61,61,60,60,58,58,55,49,42,41,36,35,33,32,29,29]; 
departureCar = [78,77,80,72,70,74,77,73,68,70,66,64,63,63,68,63,64,64,58,53,45,47,39,56,48,38,46,46]; 
